SECTION Graph
Nodes 10
Edges 12
E 1 2 2
E 1 3 6
E 2 3 1
E 3 4 8
E 1 5 9
E 4 5 3
E 4 7 4
E 5 8 10
E 7 8 2
E 5 6 1
E 5 9 2
E 6 10 7
END

SECTION Terminals
Terminals 4
T 9
T 7
T 2
T 5
END

SECTION Tree Decomposition
s td 7 3 10
b 1 1 2 3
b 2 1 3 5
b 3 3 5 4
b 4 4 7 5
b 5 5 8 7
b 6 5 6 9
b 7 6 10
1 2
2 3
3 4
4 5
5 6
6 7
END

EOF
